letting n =  10
letting blocks =  [[1, 2], [1, 4], [1, 5], [1, 7], [1, 9], [1, 10], [2, 1], [2, 4], [2, 5], [2, 6], [2, 7], [2, 9], [3, 3], [3, 5], [3, 6], [3, 7], [3, 9], [3, 10], [4, 1], [4, 3], [4, 4], [4, 6], [4, 8], [4, 10], [5, 1], [5, 6], [5, 8], [5, 9], [6, 1], [6, 2], [6, 4], [6, 5], [6, 7], [6, 10], [7, 2], [7, 3], [7, 5], [7, 6], [7, 7], [7, 8], [8, 2], [8, 4], [8, 5], [8, 6], [8, 7], [8, 9], [9, 1], [9, 2], [9, 3], [9, 8], [9, 9], [9, 10], [10, 1], [10, 2], [10, 3], [10, 4], [10, 8], [10, 10]]
